<?xml version = "1.0" standalone="yes"?>
<!-- This file has been generated by DOcplex version 2.23.222  -->
<CPLEXSolution version="1.0">
 <header
   problemName="CVRP"
   objectiveValue="7747.79"
  />
 <variables>
  <variable name="x_0_3" index="2" value="1.00000"/>
  <variable name="x_0_5" index="4" value="1.00000"/>
  <variable name="x_0_10" index="9" value="1.00000"/>
  <variable name="x_0_11" index="10" value="1.00000"/>
  <variable name="x_0_12" index="11" value="1.00000"/>
  <variable name="x_1_13" index="25" value="1.00000"/>
  <variable name="x_2_0" index="26" value="1.00000"/>
  <variable name="x_3_1" index="40" value="1.00000"/>
  <variable name="x_4_0" index="52" value="1.00000"/>
  <variable name="x_5_7" index="71" value="1.00000"/>
  <variable name="x_6_0" index="78" value="1.00000"/>
  <variable name="x_7_8" index="98" value="1.00000"/>
  <variable name="x_8_9" index="112" value="1.00000"/>
  <variable name="x_9_0" index="117" value="1.00000"/>
  <variable name="x_10_6" index="136" value="1.00000"/>
  <variable name="x_11_2" index="145" value="1.00000"/>
  <variable name="x_12_4" index="160" value="1.00000"/>
  <variable name="x_13_0" index="169" value="1.00000"/>
  <variable name="u_1" index="182" value="41.00000"/>
  <variable name="u_2" index="183" value="66.00000"/>
  <variable name="u_3" index="184" value="13.00000"/>
  <variable name="u_4" index="185" value="65.00000"/>
  <variable name="u_5" index="186" value="19.00000"/>
  <variable name="u_6" index="187" value="66.00000"/>
  <variable name="u_7" index="188" value="39.00000"/>
  <variable name="u_8" index="189" value="59.00000"/>
  <variable name="u_9" index="190" value="61.00000"/>
  <variable name="u_10" index="191" value="19.00000"/>
  <variable name="u_11" index="192" value="25.00000"/>
  <variable name="u_12" index="193" value="41.00000"/>
  <variable name="u_13" index="194" value="66.00000"/>
 </variables>
</CPLEXSolution>
